p cnf 100 1
100 0
w 1 0.42598
w 2 1 0.0918073
w 2 -1 0.0548454
w 3 2 0.381668
w 3 -2 0.0876071
w 4 3 0.890366
w 4 -3 0.989326
w 5 4 0.677986
w 5 -4 0.768316
w 6 5 0.455712
w 6 -5 0.250727
w 7 6 0.0380632
w 7 -6 0.520243
w 8 7 0
w 8 -7 1
w 9 8 0
w 9 -8 1
w 10 9 0.897629
w 10 -9 0.470939
w 11 1 0
w 11 -1 1
w 12 11 2 0
w 12 11 -2 1
w 12 -11 2 1
w 12 -11 -2 0
w 13 12 3 0
w 13 12 -3 0
w 13 -12 3 1
w 13 -12 -3 1
w 14 13 4 0
w 14 13 -4 1
w 14 -13 4 0
w 14 -13 -4 0
w 15 14 5 0.14987
w 15 14 -5 0.899264
w 15 -14 5 0.76767
w 15 -14 -5 0.790511
w 16 15 6 0.287912
w 16 15 -6 0.14271
w 16 -15 6 0.465805
w 16 -15 -6 0.430671
w 17 16 7 0.995443
w 17 16 -7 0.328301
w 17 -16 7 0.065062
w 17 -16 -7 0.406331
w 18 17 8 0.255929
w 18 17 -8 0.7094
w 18 -17 8 0.393488
w 18 -17 -8 0.872777
w 19 18 9 0.887021
w 19 18 -9 0.54447
w 19 -18 9 0.717791
w 19 -18 -9 0.762222
w 20 19 10 1
w 20 19 -10 0
w 20 -19 10 0
w 20 -19 -10 1
w 21 11 0.569339
w 21 -11 0.561874
w 22 21 12 0.337009
w 22 21 -12 0.352385
w 22 -21 12 0.807933
w 22 -21 -12 0.624921
w 23 22 13 0
w 23 22 -13 0
w 23 -22 13 1
w 23 -22 -13 1
w 24 23 14 0
w 24 23 -14 0
w 24 -23 14 0
w 24 -23 -14 1
w 25 24 15 0.282986
w 25 24 -15 0.323356
w 25 -24 15 0.656163
w 25 -24 -15 0.827456
w 26 25 16 1
w 26 25 -16 1
w 26 -25 16 1
w 26 -25 -16 0
w 27 26 17 1
w 27 26 -17 1
w 27 -26 17 0
w 27 -26 -17 1
w 28 27 18 0.0899708
w 28 27 -18 0.484302
w 28 -27 18 0.596054
w 28 -27 -18 0.714892
w 29 28 19 0.869792
w 29 28 -19 0.770484
w 29 -28 19 0.0686147
w 29 -28 -19 0.138973
w 30 29 20 0
w 30 29 -20 0
w 30 -29 20 1
w 30 -29 -20 0
w 31 21 1
w 31 -21 0
w 32 31 22 0.955335
w 32 31 -22 0.743546
w 32 -31 22 0.563902
w 32 -31 -22 0.373721
w 33 32 23 0.721941
w 33 32 -23 0.319894
w 33 -32 23 0.0583966
w 33 -32 -23 0.291984
w 34 33 24 1
w 34 33 -24 1
w 34 -33 24 1
w 34 -33 -24 0
w 35 34 25 0.616221
w 35 34 -25 0.8876
w 35 -34 25 0.491377
w 35 -34 -25 0.386705
w 36 35 26 0.630351
w 36 35 -26 0.541081
w 36 -35 26 0.17911
w 36 -35 -26 0.444837
w 37 36 27 1
w 37 36 -27 1
w 37 -36 27 0
w 37 -36 -27 0
w 38 37 28 1
w 38 37 -28 1
w 38 -37 28 1
w 38 -37 -28 0
w 39 38 29 0
w 39 38 -29 0
w 39 -38 29 1
w 39 -38 -29 0
w 40 39 30 0
w 40 39 -30 0
w 40 -39 30 1
w 40 -39 -30 0
w 41 31 1
w 41 -31 0
w 42 41 32 0.964521
w 42 41 -32 0.395137
w 42 -41 32 0.120634
w 42 -41 -32 0.920736
w 43 42 33 0
w 43 42 -33 1
w 43 -42 33 1
w 43 -42 -33 1
w 44 43 34 0.114559
w 44 43 -34 0.103112
w 44 -43 34 0.640361
w 44 -43 -34 0.281548
w 45 44 35 1
w 45 44 -35 1
w 45 -44 35 1
w 45 -44 -35 0
w 46 45 36 1
w 46 45 -36 1
w 46 -45 36 0
w 46 -45 -36 1
w 47 46 37 0
w 47 46 -37 0
w 47 -46 37 1
w 47 -46 -37 0
w 48 47 38 0.420245
w 48 47 -38 0.985024
w 48 -47 38 0.0524981
w 48 -47 -38 0.34098
w 49 48 39 1
w 49 48 -39 0
w 49 -48 39 0
w 49 -48 -39 0
w 50 49 40 0
w 50 49 -40 1
w 50 -49 40 0
w 50 -49 -40 0
w 51 41 0.105455
w 51 -41 0.889382
w 52 51 42 1
w 52 51 -42 0
w 52 -51 42 1
w 52 -51 -42 1
w 53 52 43 0.658215
w 53 52 -43 0.508367
w 53 -52 43 0.943545
w 53 -52 -43 0.344342
w 54 53 44 0.399269
w 54 53 -44 0.934229
w 54 -53 44 0.638168
w 54 -53 -44 0.819513
w 55 54 45 0.690666
w 55 54 -45 0.160494
w 55 -54 45 0.929764
w 55 -54 -45 0.404879
w 56 55 46 0.410599
w 56 55 -46 0.851919
w 56 -55 46 0.954203
w 56 -55 -46 0.00599347
w 57 56 47 1
w 57 56 -47 1
w 57 -56 47 0
w 57 -56 -47 0
w 58 57 48 0.487911
w 58 57 -48 0.61719
w 58 -57 48 0.126972
w 58 -57 -48 0.742174
w 59 58 49 0
w 59 58 -49 1
w 59 -58 49 0
w 59 -58 -49 1
w 60 59 50 0.259999
w 60 59 -50 0.0345257
w 60 -59 50 0.678961
w 60 -59 -50 0.898166
w 61 51 0.598213
w 61 -51 0.588832
w 62 61 52 0
w 62 61 -52 1
w 62 -61 52 0
w 62 -61 -52 0
w 63 62 53 0.570054
w 63 62 -53 0.94457
w 63 -62 53 0.247701
w 63 -62 -53 0.517502
w 64 63 54 0.628655
w 64 63 -54 0.570405
w 64 -63 54 0.599824
w 64 -63 -54 0.116566
w 65 64 55 0
w 65 64 -55 1
w 65 -64 55 1
w 65 -64 -55 0
w 66 65 56 1
w 66 65 -56 1
w 66 -65 56 1
w 66 -65 -56 0
w 67 66 57 1
w 67 66 -57 0
w 67 -66 57 1
w 67 -66 -57 1
w 68 67 58 0.956862
w 68 67 -58 0.809013
w 68 -67 58 0.527328
w 68 -67 -58 0.572714
w 69 68 59 0.372958
w 69 68 -59 0.142768
w 69 -68 59 0.692159
w 69 -68 -59 0.620659
w 70 69 60 0.519665
w 70 69 -60 0.249314
w 70 -69 60 0.230675
w 70 -69 -60 0.119489
w 71 61 0
w 71 -61 1
w 72 71 62 0.224619
w 72 71 -62 0.651194
w 72 -71 62 0.264793
w 72 -71 -62 0.483749
w 73 72 63 1
w 73 72 -63 1
w 73 -72 63 1
w 73 -72 -63 0
w 74 73 64 1
w 74 73 -64 1
w 74 -73 64 1
w 74 -73 -64 0
w 75 74 65 0
w 75 74 -65 1
w 75 -74 65 1
w 75 -74 -65 0
w 76 75 66 0.0215228
w 76 75 -66 0.700228
w 76 -75 66 0.483781
w 76 -75 -66 0.681793
w 77 76 67 1
w 77 76 -67 1
w 77 -76 67 1
w 77 -76 -67 0
w 78 77 68 0
w 78 77 -68 1
w 78 -77 68 0
w 78 -77 -68 0
w 79 78 69 0.419747
w 79 78 -69 0.769017
w 79 -78 69 0.294953
w 79 -78 -69 0.90418
w 80 79 70 1
w 80 79 -70 0
w 80 -79 70 0
w 80 -79 -70 1
w 81 71 1
w 81 -71 0
w 82 81 72 0
w 82 81 -72 1
w 82 -81 72 1
w 82 -81 -72 1
w 83 82 73 0.885628
w 83 82 -73 0.133303
w 83 -82 73 0.413156
w 83 -82 -73 0.105521
w 84 83 74 0.325624
w 84 83 -74 0.444903
w 84 -83 74 0.965373
w 84 -83 -74 0.656362
w 85 84 75 0.288967
w 85 84 -75 0.638294
w 85 -84 75 0.0810285
w 85 -84 -75 0.0963097
w 86 85 76 1
w 86 85 -76 1
w 86 -85 76 0
w 86 -85 -76 0
w 87 86 77 0.295619
w 87 86 -77 0.550956
w 87 -86 77 0.773499
w 87 -86 -77 0.591853
w 88 87 78 1
w 88 87 -78 1
w 88 -87 78 0
w 88 -87 -78 0
w 89 88 79 0
w 89 88 -79 1
w 89 -88 79 0
w 89 -88 -79 1
w 90 89 80 1
w 90 89 -80 1
w 90 -89 80 1
w 90 -89 -80 0
w 91 81 0
w 91 -81 1
w 92 91 82 1
w 92 91 -82 0
w 92 -91 82 0
w 92 -91 -82 0
w 93 92 83 1
w 93 92 -83 0
w 93 -92 83 1
w 93 -92 -83 0
w 94 93 84 1
w 94 93 -84 1
w 94 -93 84 0
w 94 -93 -84 1
w 95 94 85 0
w 95 94 -85 1
w 95 -94 85 1
w 95 -94 -85 1
w 96 95 86 0
w 96 95 -86 1
w 96 -95 86 0
w 96 -95 -86 0
w 97 96 87 1
w 97 96 -87 0
w 97 -96 87 0
w 97 -96 -87 1
w 98 97 88 1
w 98 97 -88 1
w 98 -97 88 0
w 98 -97 -88 1
w 99 98 89 0.828774
w 99 98 -89 0.781148
w 99 -98 89 0.673117
w 99 -98 -89 0.988612
w 100 99 90 1
w 100 99 -90 1
w 100 -99 90 0
w 100 -99 -90 1